; SPDX-License-Identifier: MPL-2.0
; Copyright (c) 2026 The RIINA Authors.
; Auto-generated from 02_FORMAL/coq/domains/SingaporeCyberTrustMark.v (27 validations)
; Generated by scripts/generate-full-stack.py
;
; Translation Validation for SingaporeCyberTrustMark
; Layer 9: Verifies compiler backend preserves formal semantics.
; Each assertion checks source IR ≡ target code for a proven property.

(set-logic QF_LIA)
(set-option :produce-models true)

; IR node representation
(declare-sort IRNode 0)
(declare-sort TargetNode 0)

; tier_level: source semantics (matches Coq)
(declare-fun source_tier_level () Bool)
(declare-fun target_tier_level () Bool)
(assert (= source_tier_level target_tier_level))

; tier_threshold: source semantics (matches Coq)
(declare-fun source_tier_threshold () Bool)
(declare-fun target_tier_threshold () Bool)
(assert (= source_tier_threshold target_tier_threshold))

; governance_meets_tier: source semantics (matches Coq)
(declare-fun source_governance_meets_tier () Bool)
(declare-fun target_governance_meets_tier () Bool)
(assert (= source_governance_meets_tier target_governance_meets_tier))

; protection_meets_tier: source semantics (matches Coq)
(declare-fun source_protection_meets_tier () Bool)
(declare-fun target_protection_meets_tier () Bool)
(assert (= source_protection_meets_tier target_protection_meets_tier))

; resilience_meets_tier: source semantics (matches Coq)
(declare-fun source_resilience_meets_tier () Bool)
(declare-fun target_resilience_meets_tier () Bool)
(assert (= source_resilience_meets_tier target_resilience_meets_tier))

; assurance_meets_tier: source semantics (matches Coq)
(declare-fun source_assurance_meets_tier () Bool)
(declare-fun target_assurance_meets_tier () Bool)
(assert (= source_assurance_meets_tier target_assurance_meets_tier))

; education_meets_tier: source semantics (matches Coq)
(declare-fun source_education_meets_tier () Bool)
(declare-fun target_education_meets_tier () Bool)
(assert (= source_education_meets_tier target_education_meets_tier))

; ai_security_assessed: source semantics (matches Coq)
(declare-fun source_ai_security_assessed () Bool)
(declare-fun target_ai_security_assessed () Bool)
(assert (= source_ai_security_assessed target_ai_security_assessed))

; ctm_certified_at_tier: source semantics (matches Coq)
(declare-fun source_ctm_certified_at_tier () Bool)
(declare-fun target_ctm_certified_at_tier () Bool)
(assert (= source_ctm_certified_at_tier target_ctm_certified_at_tier))

; cloud_security_assessed: source semantics (matches Coq)
(declare-fun source_cloud_security_assessed () Bool)
(declare-fun target_cloud_security_assessed () Bool)
(assert (= source_cloud_security_assessed target_cloud_security_assessed))

; ot_security_assessed: source semantics (matches Coq)
(declare-fun source_ot_security_assessed () Bool)
(declare-fun target_ot_security_assessed () Bool)
(assert (= source_ot_security_assessed target_ot_security_assessed))

; ctm_2025_extensions_compliant: source semantics (matches Coq)
(declare-fun source_ctm_2025_extensions_compliant () Bool)
(declare-fun target_ctm_2025_extensions_compliant () Bool)
(assert (= source_ctm_2025_extensions_compliant target_ctm_2025_extensions_compliant))

; all_domains_above: source semantics (matches Coq)
(declare-fun source_all_domains_above () Bool)
(declare-fun target_all_domains_above () Bool)
(assert (= source_all_domains_above target_all_domains_above))

; cssp_ctm_requirement: source semantics (matches Coq)
(declare-fun source_cssp_ctm_requirement () Bool)
(declare-fun target_cssp_ctm_requirement () Bool)
(assert (= source_cssp_ctm_requirement target_cssp_ctm_requirement))

; ctm_governance_check: translation preserves property (matches Coq: Theorem)
(declare-fun source_ctm_governance_check () Bool)
(declare-fun target_ctm_governance_check () Bool)
(assert (= source_ctm_governance_check target_ctm_governance_check))

; ctm_protection_check: translation preserves property (matches Coq: Theorem)
(declare-fun source_ctm_protection_check () Bool)
(declare-fun target_ctm_protection_check () Bool)
(assert (= source_ctm_protection_check target_ctm_protection_check))

; ctm_resilience_check: translation preserves property (matches Coq: Theorem)
(declare-fun source_ctm_resilience_check () Bool)
(declare-fun target_ctm_resilience_check () Bool)
(assert (= source_ctm_resilience_check target_ctm_resilience_check))

; ctm_assurance_check: translation preserves property (matches Coq: Theorem)
(declare-fun source_ctm_assurance_check () Bool)
(declare-fun target_ctm_assurance_check () Bool)
(assert (= source_ctm_assurance_check target_ctm_assurance_check))

; ctm_education_check: translation preserves property (matches Coq: Theorem)
(declare-fun source_ctm_education_check () Bool)
(declare-fun target_ctm_education_check () Bool)
(assert (= source_ctm_education_check target_ctm_education_check))

; ctm_ai_check: translation preserves property (matches Coq: Theorem)
(declare-fun source_ctm_ai_check () Bool)
(declare-fun target_ctm_ai_check () Bool)
(assert (= source_ctm_ai_check target_ctm_ai_check))

; ctm_certification: translation preserves property (matches Coq: Theorem)
(declare-fun source_ctm_certification () Bool)
(declare-fun target_ctm_certification () Bool)
(assert (= source_ctm_certification target_ctm_certification))

; tier_monotonicity: translation preserves property (matches Coq: Theorem)
(declare-fun source_tier_monotonicity () Bool)
(declare-fun target_tier_monotonicity () Bool)
(assert (= source_tier_monotonicity target_tier_monotonicity))

; ctm_tier_coverage: translation preserves property (matches Coq: Theorem)
(declare-fun source_ctm_tier_coverage () Bool)
(declare-fun target_ctm_tier_coverage () Bool)
(assert (= source_ctm_tier_coverage target_ctm_tier_coverage))

; essential_is_tier_1: translation preserves property (matches Coq: Theorem)
(declare-fun source_essential_is_tier_1 () Bool)
(declare-fun target_essential_is_tier_1 () Bool)
(assert (= source_essential_is_tier_1 target_essential_is_tier_1))

; expert_is_tier_4: translation preserves property (matches Coq: Theorem)
(declare-fun source_expert_is_tier_4 () Bool)
(declare-fun target_expert_is_tier_4 () Bool)
(assert (= source_expert_is_tier_4 target_expert_is_tier_4))

; tier_level_positive: translation preserves property (matches Coq: Theorem)
(declare-fun source_tier_level_positive () Bool)
(declare-fun target_tier_level_positive () Bool)
(assert (= source_tier_level_positive target_tier_level_positive))

; tier_level_bounded: translation preserves property (matches Coq: Theorem)
(declare-fun source_tier_level_bounded () Bool)
(declare-fun target_tier_level_bounded () Bool)
(assert (= source_tier_level_bounded target_tier_level_bounded))

; essential_threshold_30: translation preserves property (matches Coq: Theorem)
(declare-fun source_essential_threshold_30 () Bool)
(declare-fun target_essential_threshold_30 () Bool)
(assert (= source_essential_threshold_30 target_essential_threshold_30))

; expert_threshold_90: translation preserves property (matches Coq: Theorem)
(declare-fun source_expert_threshold_90 () Bool)
(declare-fun target_expert_threshold_90 () Bool)
(assert (= source_expert_threshold_90 target_expert_threshold_90))

; threshold_positive: translation preserves property (matches Coq: Theorem)
(declare-fun source_threshold_positive () Bool)
(declare-fun target_threshold_positive () Bool)
(assert (= source_threshold_positive target_threshold_positive))

; threshold_bounded: translation preserves property (matches Coq: Theorem)
(declare-fun source_threshold_bounded () Bool)
(declare-fun target_threshold_bounded () Bool)
(assert (= source_threshold_bounded target_threshold_bounded))

; certified_expert_implies_advanced: translation preserves property (matches Coq: Theorem)
(declare-fun source_certified_expert_implies_advanced () Bool)
(declare-fun target_certified_expert_implies_advanced () Bool)
(assert (= source_certified_expert_implies_advanced target_certified_expert_implies_advanced))

; certified_advanced_implies_intermediate: translation preserves property (matches Coq: Theorem)
(declare-fun source_certified_advanced_implies_intermediate () Bool)
(declare-fun target_certified_advanced_implies_intermediate () Bool)
(assert (= source_certified_advanced_implies_intermediate target_certified_advanced_implies_intermediate))

; certified_intermediate_implies_essential: translation preserves property (matches Coq: Theorem)
(declare-fun source_certified_intermediate_implies_essential () Bool)
(declare-fun target_certified_intermediate_implies_essential () Bool)
(assert (= source_certified_intermediate_implies_essential target_certified_intermediate_implies_essential))

; ctm_cloud_check: translation preserves property (matches Coq: Theorem)
(declare-fun source_ctm_cloud_check () Bool)
(declare-fun target_ctm_cloud_check () Bool)
(assert (= source_ctm_cloud_check target_ctm_cloud_check))

; ctm_ot_check: translation preserves property (matches Coq: Theorem)
(declare-fun source_ctm_ot_check () Bool)
(declare-fun target_ctm_ot_check () Bool)
(assert (= source_ctm_ot_check target_ctm_ot_check))

; ctm_2025_full: translation preserves property (matches Coq: Theorem)
(declare-fun source_ctm_2025_full () Bool)
(declare-fun target_ctm_2025_full () Bool)
(assert (= source_ctm_2025_full target_ctm_2025_full))

; all_domains_above_implies_tier: translation preserves property (matches Coq: Theorem)
(declare-fun source_all_domains_above_implies_tier () Bool)
(declare-fun target_all_domains_above_implies_tier () Bool)
(assert (= source_all_domains_above_implies_tier target_all_domains_above_implies_tier))

; cssp_must_have_ctm: translation preserves property (matches Coq: Theorem)
(declare-fun source_cssp_must_have_ctm () Bool)
(declare-fun target_cssp_must_have_ctm () Bool)
(assert (= source_cssp_must_have_ctm target_cssp_must_have_ctm))

; cssp_without_ctm_non_compliant: translation preserves property (matches Coq: Theorem)
(declare-fun source_cssp_without_ctm_non_compliant () Bool)
(declare-fun target_cssp_without_ctm_non_compliant () Bool)
(assert (= source_cssp_without_ctm_non_compliant target_cssp_without_ctm_non_compliant))

; expert_requires_90_all_domains: translation preserves property (matches Coq: Theorem)
(declare-fun source_expert_requires_90_all_domains () Bool)
(declare-fun target_expert_requires_90_all_domains () Bool)
(assert (= source_expert_requires_90_all_domains target_expert_requires_90_all_domains))

; Verify all translation validations are satisfiable
(check-sat)
(exit)
